\* Problem: Unknown *\

Minimize
 obj: - 100 x_1 - 499 x_2 - 100 x_4 + 100 x_6 - 100 x_7 - 100 x_8
 + 100 x_10 + 100 x_14 - 11000 x_15 - 10900 x_16 - 10800 x_17
 - 10700 x_18 - 10700 x_19 - 10600 x_20 - 10400 x_21 - 10400 x_22
 - 10400 x_23 - 10300 x_24 - 10300 x_25 - 10200 x_26 - 10200 x_27
 - 10100 x_28 - 10100 x_29 - 10000 x_30 - 10000 x_31 - 10000 x_32
 - 9900 x_33 - 9800 x_34 - 9800 x_35 - 9700 x_36 - 9700 x_37 - 9700 x_38
 - 9600 x_39 - 9600 x_40 - 9600 x_41 - 9600 x_42 - 9500 x_43 - 9400 x_44
 - 9300 x_45 - 9200 x_46 - 9100 x_47 - 9000 x_48 - 8900 x_49 - 8800 x_50
 - 8700 x_51 - 8600 x_52 - 8600 x_53 - 8600 x_54 - 8600 x_55 - 8500 x_56
 - 8500 x_57 - 8400 x_58 - 8300 x_59 - 8200 x_60 - 8100 x_61 - 8000 x_62
 - 7900 x_63 + 2200 x_64 - 9500 x_65 - 9500 x_66 - 499 x_67

Subject To
 r_1: + x_1 = 49.1599999999996
 r_2: + x_67 + x_3 >= 0
 r_3: + x_43 - ~r_3 = 0
 r_4: + x_61 - ~r_4 = 0
 r_5: + x_26 - ~r_5 = 0
 r_6: + x_33 - ~r_6 = 0
 r_7: + x_56 - ~r_7 = 0
 r_8: + x_58 - ~r_8 = 0
 r_9: + x_22 - ~r_9 = 0
 r_10: + x_18 - ~r_10 = 0
 r_11: + x_19 - ~r_11 = 0
 r_12: + x_52 - ~r_12 = 0
 r_13: + x_16 - ~r_13 = 0
 r_14: + x_53 - ~r_14 = 0
 r_15: + x_39 - ~r_15 = 0
 r_16: + x_4 + x_3 + x_2 >= 0
 r_17: + x_11 >= 0
 r_18: + x_6 + x_5 >= 0
 r_19: + x_5 - ~r_19 = 0
 r_20: + x_6 >= 0
 r_21: + x_8 + x_7 >= 0
 r_22: + x_12 >= 0
 r_23: + x_10 + x_9 >= 0
 r_24: + x_9 - ~r_24 = 0
 r_25: + x_10 >= 0
 r_26: + x_15 - ~r_26 = 0
 r_27: + x_24 - ~r_27 = 0
 r_28: + x_17 - ~r_28 = 0
 r_29: + x_63 - ~r_29 = 0
 r_30: + x_36 - ~r_30 = 0
 r_31: + x_40 - ~r_31 = 0
 r_32: + x_34 - ~r_32 = 0
 r_33: + x_28 - ~r_33 = 0
 r_34: + x_65 - ~r_34 = 0
 r_35: + x_12 + x_11 >= 0
 r_36: + x_21 >= 0
 r_37: + x_14 + x_13 >= 0
 r_38: + x_13 - ~r_38 = 0
 r_39: + x_14 >= 0
 r_40: + x_37 - ~r_40 = 0
 r_41: + x_50 - ~r_41 = 0
 r_42: + x_49 - ~r_42 = 0
 r_43: + x_41 - ~r_43 = 0
 r_44: + x_35 - ~r_44 = 0
 r_45: + x_20 - ~r_45 = 0
 r_46: + x_29 - ~r_46 = 0
 r_47: + x_66 + x_65 + x_64 + x_63 + x_62 + x_61 + x_60 + x_59 + x_58
 + x_57 + x_56 + x_55 + x_54 + x_53 + x_52 + x_51 + x_50 + x_49 + x_48
 + x_47 + x_46 + x_45 + x_44 + x_43 + x_42 + x_41 + x_40 + x_39 + x_38
 + x_37 + x_36 + x_35 + x_34 + x_33 + x_32 + x_31 + x_30 + x_29 + x_28
 + x_27 + x_26 + x_25 + x_24 + x_23 + x_22 + x_21 + x_20 + x_19 + x_18
 + x_17 + x_16 + x_15 = 1000
 r_48: + x_38 - ~r_48 = 0
 r_49: + x_30 - ~r_49 = 0
 r_50: + x_66 - ~r_50 = 0
 r_51: + x_47 - ~r_51 = 0
 r_52: + x_2 = 0
 r_53: + x_67 = 0
 r_54: + x_25 - ~r_54 = 0
 r_55: + x_44 - ~r_55 = 0
 r_56: + x_60 - ~r_56 = 0
 r_57: + x_45 - ~r_57 = 0
 r_58: + x_54 - ~r_58 = 0
 r_59: + x_23 - ~r_59 = 0
 r_60: + x_59 - ~r_60 = 0
 r_61: + x_57 - ~r_61 = 0
 r_62: + x_46 - ~r_62 = 0
 r_63: + x_27 - ~r_63 = 0
 r_64: + x_55 - ~r_64 = 0
 r_65: + x_62 - ~r_65 = 0
 r_66: + x_31 - ~r_66 = 0
 r_67: + x_51 - ~r_67 = 0
 r_68: + x_48 - ~r_68 = 0
 r_69: + x_42 - ~r_69 = 0
 r_70: + x_32 - ~r_70 = 0
 r_71: + x_4 - ~r_71 = 0
 r_72: + x_7 + x_1 - ~r_72 = 0
 r_73: + x_8 - ~r_73 = 0
 r_74: + x_66 + x_65 + x_64 + x_63 + x_62 + x_61 + x_60 + x_59 + x_58
 + x_57 + x_56 + x_55 + x_54 + x_53 + x_52 + x_51 + x_50 + x_49 + x_48
 + x_47 + x_46 + x_45 + x_44 + x_43 + x_42 + x_41 + x_40 + x_39 + x_38
 + x_37 + x_36 + x_35 + x_34 + x_33 + x_32 + x_31 + x_30 + x_29 + x_28
 + x_27 + x_26 + x_25 + x_24 + x_23 + x_22 + x_21 + x_20 + x_19 + x_18
 + x_17 + x_16 + x_15 - ~r_74 = 0
 r_75: + x_66 + x_65 + x_64 + x_63 + x_62 + x_61 + x_60 + x_59 + x_58
 + x_57 + x_56 + x_55 + x_54 + x_53 + x_52 + x_51 + x_50 + x_49 + x_48
 + x_47 + x_46 + x_45 + x_44 + x_43 + x_42 + x_41 + x_40 + x_39 + x_38
 + x_37 + x_36 + x_35 + x_34 + x_33 + x_32 + x_31 + x_30 + x_29 + x_28
 - ~r_75 = 0
 r_76: + x_66 + x_65 + x_64 + x_63 + x_62 + x_61 + x_60 + x_59 + x_58
 + x_57 + x_56 + x_55 + x_54 + x_53 + x_52 + x_51 + x_50 + x_49 + x_48
 + x_47 + x_46 + x_45 + x_44 + x_43 + x_42 + x_41 + x_40 + x_39 + x_38
 + x_37 + x_36 + x_35 + x_34 + x_33 + x_32 + x_31 + x_30 - ~r_76 = 0
 r_77: + x_66 + x_65 + x_64 + x_63 + x_62 + x_61 + x_60 + x_59 + x_58
 + x_57 + x_56 + x_55 + x_54 + x_53 + x_52 + x_51 + x_50 + x_49 + x_48
 + x_47 + x_46 + x_45 + x_44 + x_43 + x_42 + x_41 + x_40 + x_39 + x_38
 + x_37 + x_36 + x_35 + x_34 + x_33 - ~r_77 = 0
 r_78: + x_66 + x_65 + x_64 + x_63 + x_62 + x_61 + x_60 + x_59 + x_58
 + x_57 + x_56 + x_55 + x_54 + x_53 + x_52 + x_51 + x_50 + x_49 + x_48
 + x_47 + x_46 + x_45 + x_44 + x_43 + x_42 + x_41 + x_40 + x_39 + x_38
 + x_37 + x_36 + x_35 + x_34 - ~r_78 = 0
 r_79: + x_66 + x_65 + x_64 + x_63 + x_62 + x_61 + x_60 + x_59 + x_58
 + x_57 + x_56 + x_55 + x_54 + x_53 + x_52 + x_51 + x_50 + x_49 + x_48
 + x_47 + x_46 + x_45 + x_44 + x_43 + x_42 + x_41 + x_40 + x_39 + x_38
 + x_37 + x_36 - ~r_79 = 0
 r_80: + x_66 + x_65 + x_64 + x_63 + x_62 + x_61 + x_60 + x_59 + x_58
 + x_57 + x_56 + x_55 + x_54 + x_53 + x_52 + x_51 + x_50 + x_49 + x_48
 + x_47 + x_46 + x_45 + x_44 + x_43 + x_42 + x_41 + x_40 + x_39 - ~r_80
 = 0
 r_81: + x_64 + x_63 + x_62 + x_61 + x_60 + x_59 + x_58 + x_57 + x_56
 + x_55 + x_54 + x_53 + x_52 + x_51 + x_50 + x_49 + x_48 + x_47 + x_46
 + x_45 + x_44 + x_43 - ~r_81 = 0
 r_82: + x_64 + x_63 + x_62 + x_61 + x_60 + x_59 + x_58 + x_57 + x_56
 + x_55 + x_54 + x_53 + x_52 + x_51 + x_50 + x_49 + x_48 + x_47 + x_46
 + x_45 + x_44 - ~r_82 = 0
 r_83: + x_64 + x_63 + x_62 + x_61 + x_60 + x_59 + x_58 + x_57 + x_56
 + x_55 + x_54 + x_53 + x_52 + x_51 + x_50 + x_49 + x_48 + x_47 + x_46
 + x_45 - ~r_83 = 0
 r_84: + x_64 + x_63 + x_62 + x_61 + x_60 + x_59 + x_58 + x_57 + x_56
 + x_55 + x_54 + x_53 + x_52 + x_51 + x_50 + x_49 + x_48 + x_47 + x_46
 - ~r_84 = 0
 r_85: + x_66 + x_65 + x_64 + x_63 + x_62 + x_61 + x_60 + x_59 + x_58
 + x_57 + x_56 + x_55 + x_54 + x_53 + x_52 + x_51 + x_50 + x_49 + x_48
 + x_47 + x_46 + x_45 + x_44 + x_43 + x_42 + x_41 + x_40 + x_39 + x_38
 + x_37 + x_36 + x_35 + x_34 + x_33 + x_32 + x_31 + x_30 + x_29 + x_28
 + x_27 + x_26 + x_25 + x_24 + x_23 + x_22 + x_21 + x_20 + x_19 + x_18
 + x_17 + x_16 - ~r_85 = 0
 r_86: + x_64 + x_63 + x_62 + x_61 + x_60 + x_59 + x_58 + x_57 + x_56
 + x_55 + x_54 + x_53 + x_52 + x_51 + x_50 + x_49 + x_48 + x_47 - ~r_86
 = 0
 r_87: + x_64 + x_63 + x_62 + x_61 + x_60 + x_59 + x_58 + x_57 + x_56
 + x_55 + x_54 + x_53 + x_52 + x_51 + x_50 + x_49 + x_48 - ~r_87 = 0
 r_88: + x_64 + x_63 + x_62 + x_61 + x_60 + x_59 + x_58 + x_57 + x_56
 + x_55 + x_54 + x_53 + x_52 + x_51 + x_50 + x_49 - ~r_88 = 0
 r_89: + x_64 + x_63 + x_62 + x_61 + x_60 + x_59 + x_58 + x_57 + x_56
 + x_55 + x_54 + x_53 + x_52 + x_51 + x_50 - ~r_89 = 0
 r_90: + x_64 + x_63 + x_62 + x_61 + x_60 + x_59 + x_58 + x_57 + x_56
 + x_55 + x_54 + x_53 + x_52 + x_51 - ~r_90 = 0
 r_91: + x_64 + x_63 + x_62 + x_61 + x_60 + x_59 + x_58 + x_57 + x_56
 + x_55 + x_54 + x_53 + x_52 - ~r_91 = 0
 r_92: + x_64 + x_63 + x_62 + x_61 + x_60 + x_59 + x_58 + x_57 + x_56
 - ~r_92 = 0
 r_93: + x_64 + x_63 + x_62 + x_61 + x_60 + x_59 + x_58 - ~r_93 = 0
 r_94: + x_64 + x_63 + x_62 + x_61 + x_60 + x_59 - ~r_94 = 0
 r_95: + x_64 + x_63 + x_62 + x_61 + x_60 - ~r_95 = 0
 r_96: + x_66 + x_65 + x_64 + x_63 + x_62 + x_61 + x_60 + x_59 + x_58
 + x_57 + x_56 + x_55 + x_54 + x_53 + x_52 + x_51 + x_50 + x_49 + x_48
 + x_47 + x_46 + x_45 + x_44 + x_43 + x_42 + x_41 + x_40 + x_39 + x_38
 + x_37 + x_36 + x_35 + x_34 + x_33 + x_32 + x_31 + x_30 + x_29 + x_28
 + x_27 + x_26 + x_25 + x_24 + x_23 + x_22 + x_21 + x_20 + x_19 + x_18
 + x_17 - ~r_96 = 0
 r_97: + x_64 + x_63 + x_62 + x_61 - ~r_97 = 0
 r_98: + x_64 + x_63 + x_62 - ~r_98 = 0
 r_99: + x_66 + x_65 + x_64 + x_63 + x_62 + x_61 + x_60 + x_59 + x_58
 + x_57 + x_56 + x_55 + x_54 + x_53 + x_52 + x_51 + x_50 + x_49 + x_48
 + x_47 + x_46 + x_45 + x_44 + x_43 + x_42 + x_41 + x_40 + x_39 + x_38
 + x_37 + x_36 + x_35 + x_34 + x_33 + x_32 + x_31 + x_30 + x_29 + x_28
 + x_27 + x_26 + x_25 + x_24 + x_23 + x_22 + x_21 + x_20 + x_19 + x_18
 - ~r_99 = 0
 r_100: + x_66 + x_65 + x_64 + x_63 + x_62 + x_61 + x_60 + x_59 + x_58
 + x_57 + x_56 + x_55 + x_54 + x_53 + x_52 + x_51 + x_50 + x_49 + x_48
 + x_47 + x_46 + x_45 + x_44 + x_43 + x_42 + x_41 + x_40 + x_39 + x_38
 + x_37 + x_36 + x_35 + x_34 + x_33 + x_32 + x_31 + x_30 + x_29 + x_28
 + x_27 + x_26 + x_25 + x_24 + x_23 + x_22 + x_21 + x_20 - ~r_100 = 0
 r_101: + x_66 + x_65 + x_64 + x_63 + x_62 + x_61 + x_60 + x_59 + x_58
 + x_57 + x_56 + x_55 + x_54 + x_53 + x_52 + x_51 + x_50 + x_49 + x_48
 + x_47 + x_46 + x_45 + x_44 + x_43 + x_42 + x_41 + x_40 + x_39 + x_38
 + x_37 + x_36 + x_35 + x_34 + x_33 + x_32 + x_31 + x_30 + x_29 + x_28
 + x_27 + x_26 + x_25 + x_24 + x_23 + x_22 + x_21 - ~r_101 = 0
 r_102: + x_66 + x_65 + x_64 + x_63 + x_62 + x_61 + x_60 + x_59 + x_58
 + x_57 + x_56 + x_55 + x_54 + x_53 + x_52 + x_51 + x_50 + x_49 + x_48
 + x_47 + x_46 + x_45 + x_44 + x_43 + x_42 + x_41 + x_40 + x_39 + x_38
 + x_37 + x_36 + x_35 + x_34 + x_33 + x_32 + x_31 + x_30 + x_29 + x_28
 + x_27 + x_26 + x_25 + x_24 + x_23 + x_22 - ~r_102 = 0
 r_103: + x_66 + x_65 + x_64 + x_63 + x_62 + x_61 + x_60 + x_59 + x_58
 + x_57 + x_56 + x_55 + x_54 + x_53 + x_52 + x_51 + x_50 + x_49 + x_48
 + x_47 + x_46 + x_45 + x_44 + x_43 + x_42 + x_41 + x_40 + x_39 + x_38
 + x_37 + x_36 + x_35 + x_34 + x_33 + x_32 + x_31 + x_30 + x_29 + x_28
 + x_27 + x_26 + x_25 + x_24 - ~r_103 = 0
 r_104: + x_66 + x_65 + x_64 + x_63 + x_62 + x_61 + x_60 + x_59 + x_58
 + x_57 + x_56 + x_55 + x_54 + x_53 + x_52 + x_51 + x_50 + x_49 + x_48
 + x_47 + x_46 + x_45 + x_44 + x_43 + x_42 + x_41 + x_40 + x_39 + x_38
 + x_37 + x_36 + x_35 + x_34 + x_33 + x_32 + x_31 + x_30 + x_29 + x_28
 + x_27 + x_26 - ~r_104 = 0
 r_105: + x_64 >= 0
 r_106: + x_64 + x_63 - ~r_106 = 0
 r_107: + x_66 + x_65 - ~r_107 = 0
 r_108: + x_6 + x_5 - x_11 = 0
 r_109: + x_4 + x_3 + x_2 - x_6 - x_5 = 0
 r_110: + x_10 + x_9 - x_12 = 0
 r_111: + x_8 + x_7 - x_10 - x_9 = 0
 r_112: + x_14 + x_13 - x_21 = 0
 r_113: + x_12 + x_11 - x_14 - x_13 = 0
 r_114: - x_1 + x_67 + x_3 - ~r_114 = -5646.42857142857

Bounds
 0 <= ~r_3 <= 14.2857142857143
 0 <= ~r_4 <= 14.2857142857143
 0 <= ~r_5 <= 14.2857142857143
 0 <= ~r_6 <= 14.2857142857143
 0 <= ~r_7 <= 14.2857142857143
 0 <= ~r_8 <= 14.2857142857143
 0 <= ~r_9 <= 14.2857142857143
 0 <= ~r_10 <= 14.2857142857143
 0 <= ~r_11 <= 14.2857142857143
 0 <= ~r_12 <= 14.2857142857143
 0 <= ~r_13 <= 14.2857142857143
 0 <= ~r_14 <= 14.2857142857143
 0 <= ~r_15 <= 14.2857142857143
 0 <= ~r_19 <= 0.03
 0 <= ~r_24 <= 0.02
 0 <= ~r_26 <= 14.2857142857143
 0 <= ~r_27 <= 14.2857142857143
 0 <= ~r_28 <= 14.2857142857143
 0 <= ~r_29 <= 14.2857142857143
 0 <= ~r_30 <= 14.2857142857143
 0 <= ~r_31 <= 14.2857142857143
 0 <= ~r_32 <= 14.2857142857143
 0 <= ~r_33 <= 14.2857142857143
 0 <= ~r_34 <= 14.2857142857143
 0 <= ~r_38 <= 0.05
 0 <= ~r_40 <= 14.2857142857143
 0 <= ~r_41 <= 14.2857142857143
 0 <= ~r_42 <= 14.2857142857143
 0 <= ~r_43 <= 14.2857142857143
 0 <= ~r_44 <= 14.2857142857143
 0 <= ~r_45 <= 14.2857142857143
 0 <= ~r_46 <= 14.2857142857143
 0 <= ~r_48 <= 14.2857142857143
 0 <= ~r_49 <= 14.2857142857143
 0 <= ~r_50 <= 14.2857142857143
 0 <= ~r_51 <= 14.2857142857143
 0 <= ~r_54 <= 14.2857142857143
 0 <= ~r_55 <= 14.2857142857143
 0 <= ~r_56 <= 14.2857142857143
 0 <= ~r_57 <= 14.2857142857143
 0 <= ~r_58 <= 14.2857142857143
 0 <= ~r_59 <= 14.2857142857143
 0 <= ~r_60 <= 14.2857142857143
 0 <= ~r_61 <= 14.2857142857143
 0 <= ~r_62 <= 14.2857142857143
 0 <= ~r_63 <= 14.2857142857143
 0 <= ~r_64 <= 14.2857142857143
 0 <= ~r_65 <= 14.2857142857143
 0 <= ~r_66 <= 14.2857142857143
 0 <= ~r_67 <= 14.2857142857143
 0 <= ~r_68 <= 14.2857142857143
 0 <= ~r_69 <= 14.2857142857143
 0 <= ~r_70 <= 14.2857142857143
 0 <= ~r_71 <= 14.2857142857143
 0 <= ~r_72 <= 14.2857142857143
 0 <= ~r_73 <= 14.2857142857143
 0 <= ~r_74 <= 13200000
 0 <= ~r_75 <= 13200000
 0 <= ~r_76 <= 13200000
 0 <= ~r_77 <= 13200000
 0 <= ~r_78 <= 13200000
 0 <= ~r_79 <= 13200000
 0 <= ~r_80 <= 13200000
 0 <= ~r_81 <= 13200000
 0 <= ~r_82 <= 13200000
 0 <= ~r_83 <= 13200000
 0 <= ~r_84 <= 13200000
 0 <= ~r_85 <= 13200000
 0 <= ~r_86 <= 13200000
 0 <= ~r_87 <= 13200000
 0 <= ~r_88 <= 13200000
 0 <= ~r_89 <= 13200000
 0 <= ~r_90 <= 13200000
 0 <= ~r_91 <= 13200000
 0 <= ~r_92 <= 13200000
 0 <= ~r_93 <= 13200000
 0 <= ~r_94 <= 13200000
 0 <= ~r_95 <= 13200000
 0 <= ~r_96 <= 13200000
 0 <= ~r_97 <= 13200000
 0 <= ~r_98 <= 13200000
 0 <= ~r_99 <= 13200000
 0 <= ~r_100 <= 13200000
 0 <= ~r_101 <= 13200000
 0 <= ~r_102 <= 13200000
 0 <= ~r_103 <= 13200000
 0 <= ~r_104 <= 13200000
 0 <= ~r_106 <= 13200000
 0 <= ~r_107 <= 13200000
 0 <= ~r_114 <= 41666.6666666667

End
